200
1000
163
162
161
161
159
157
157
154
154
153
153
152
152
151
149
149
149
149
148
148
147
146
145
144
144
144
143
143
142
142
141
141
141
140
139
139
139
138
137
137
137
136
136
136
135
133
132
132
131
131
131
130
130
130
129
129
128
128
128
128
128
125
125
124
124
124
123
122
122
121
121
121
120
120
120
120
118
118
118
117
117
116
116
115
115
113
113
112
111
111
110
110
109
108
107
106
106
106
104
104
104
103
103
103
103
103
103
102
102
99
98
97
97
97
96
96
95
94
94
93
92
92
91
91
91
91
90
90
90
88
87
87
87
86
86
86
86
86
85
85
84
84
84
84
83
83
82
81
81
81
80
80
79
79
79
78
78
78
77
76
76
76
75
75
74
74
74
72
72
71
71
71
71
70
70
70
69
68
68
68
67
67
67
66
65
63
63
62
61
60
60
60
60
59
59
58
58
58
57
57
